
P = 1;

n = 10;

m = 10;

w1 = 1.00;

w2 = 5.00;

L = 3.00;

g = 1.26;

t = 
[[81,62,60,97,83,61,61,89,90,85],
[96,67,97,94,70,86,64,77,74,68],
[65,98,92,86,80,86,66,94,96,92],
[78,69,86,70,67,70,71,60,91,93],
[77,87,92,66,74,95,92,70,72,99],
[70,69,89,94,95,61,80,93,87,68],
[78,66,70,64,76,77,66,80,69,97],
[65,79,77,98,85,83,93,78,93,97],
[69,63,67,98,97,94,91,69,80,79],
[78,98,85,88,94,93,97,61,73,98]];
